30
1 0 15
2 0 48
2 1 44
3 0 27
3 1 10
3 2 14
4 0 58
4 1 46
4 2 23
4 3 8
5 0 47
5 1 51
5 2 5
5 3 53
5 4 22
6 0 25
6 1 41
6 2 53
6 3 42
6 4 34
6 5 33
7 0 35
7 1 21
7 2 43
7 3 32
7 4 6
7 5 24
7 6 53
8 0 30
8 1 36
8 2 9
8 3 46
8 4 14
8 5 38
8 6 25
8 7 53
9 0 25
9 1 51
9 2 12
9 3 59
9 4 12
9 5 28
9 6 22
9 7 59
9 8 7
10 0 60
10 1 2
10 2 8
10 3 51
10 4 52
10 5 47
10 6 55
10 7 23
10 8 39
10 9 39
11 0 8
11 1 36
11 2 23
11 3 46
11 4 59
11 5 4
11 6 18
11 7 1
11 8 15
11 9 47
11 10 32
12 0 59
12 1 51
12 2 12
12 3 46
12 4 11
12 5 14
12 6 34
12 7 14
12 8 25
12 9 38
12 10 32
12 11 5
13 0 27
13 1 52
13 2 40
13 3 10
13 4 37
13 5 29
13 6 1
13 7 56
13 8 5
13 9 17
13 10 16
13 11 40
13 12 36
14 0 25
14 1 46
14 2 40
14 3 12
14 4 51
14 5 39
14 6 39
14 7 11
14 8 42
14 9 56
14 10 44
14 11 9
14 12 49
14 13 60
15 0 59
15 1 8
15 2 29
15 3 9
15 4 46
15 5 59
15 6 24
15 7 57
15 8 2
15 9 37
15 10 59
15 11 45
15 12 58
15 13 37
15 14 48
16 0 20
16 1 34
16 2 33
16 3 51
16 4 40
16 5 19
16 6 53
16 7 35
16 8 34
16 9 48
16 10 12
16 11 14
16 12 4
16 13 1
16 14 22
16 15 53
17 0 24
17 1 50
17 2 41
17 3 53
17 4 37
17 5 39
17 6 11
17 7 8
17 8 13
17 9 17
17 10 44
17 11 58
17 12 33
17 13 43
17 14 25
17 15 39
17 16 36
18 0 13
18 1 24
18 2 2
18 3 25
18 4 49
18 5 32
18 6 30
18 7 38
18 8 19
18 9 55
18 10 33
18 11 30
18 12 15
18 13 33
18 14 25
18 15 22
18 16 27
18 17 37
19 0 43
19 1 54
19 2 14
19 3 7
19 4 2
19 5 1
19 6 14
19 7 57
19 8 48
19 9 34
19 10 30
19 11 19
19 12 2
19 13 20
19 14 13
19 15 32
19 16 40
19 17 39
19 18 34
20 0 23
20 1 39
20 2 46
20 3 60
20 4 26
20 5 56
20 6 56
20 7 24
20 8 13
20 9 6
20 10 40
20 11 53
20 12 13
20 13 17
20 14 41
20 15 47
20 16 46
20 17 28
20 18 27
20 19 38
21 0 32
21 1 29
21 2 28
21 3 52
21 4 10
21 5 20
21 6 40
21 7 35
21 8 17
21 9 24
21 10 24
21 11 39
21 12 49
21 13 57
21 14 4
21 15 57
21 16 21
21 17 49
21 18 23
21 19 38
21 20 11
22 0 13
22 1 39
22 2 32
22 3 59
22 4 15
22 5 44
22 6 15
22 7 30
22 8 7
22 9 31
22 10 28
22 11 35
22 12 35
22 13 55
22 14 35
22 15 18
22 16 58
22 17 59
22 18 34
22 19 22
22 20 40
22 21 32
23 0 52
23 1 46
23 2 7
23 3 17
23 4 34
23 5 20
23 6 40
23 7 29
23 8 13
23 9 52
23 10 35
23 11 33
23 12 60
23 13 56
23 14 32
23 15 19
23 16 9
23 17 25
23 18 58
23 19 30
23 20 58
23 21 21
23 22 10
24 0 53
24 1 25
24 2 53
24 3 21
24 4 18
24 5 37
24 6 17
24 7 35
24 8 7
24 9 30
24 10 7
24 11 35
24 12 8
24 13 23
24 14 21
24 15 52
24 16 56
24 17 27
24 18 47
24 19 26
24 20 3
24 21 2
24 22 9
24 23 14
25 0 39
25 1 34
25 2 47
25 3 6
25 4 26
25 5 29
25 6 41
25 7 41
25 8 10
25 9 11
25 10 21
25 11 46
25 12 43
25 13 16
25 14 42
25 15 54
25 16 48
25 17 18
25 18 7
25 19 21
25 20 46
25 21 1
25 22 12
25 23 39
25 24 56
26 0 35
26 1 54
26 2 18
26 3 33
26 4 27
26 5 1
26 6 28
26 7 13
26 8 56
26 9 26
26 10 41
26 11 28
26 12 20
26 13 26
26 14 53
26 15 41
26 16 31
26 17 47
26 18 17
26 19 50
26 20 2
26 21 53
26 22 54
26 23 18
26 24 25
26 25 46
27 0 57
27 1 10
27 2 2
27 3 53
27 4 60
27 5 32
27 6 40
27 7 3
27 8 59
27 9 39
27 10 59
27 11 47
27 12 22
27 13 18
27 14 1
27 15 11
27 16 50
27 17 15
27 18 50
27 19 49
27 20 42
27 21 59
27 22 53
27 23 23
27 24 38
27 25 5
27 26 22
28 0 8
28 1 18
28 2 46
28 3 12
28 4 17
28 5 19
28 6 33
28 7 53
28 8 59
28 9 34
28 10 4
28 11 32
28 12 20
28 13 27
28 14 31
28 15 13
28 16 51
28 17 57
28 18 15
28 19 47
28 20 11
28 21 32
28 22 23
28 23 4
28 24 53
28 25 12
28 26 33
28 27 24
29 0 47
29 1 10
29 2 15
29 3 31
29 4 7
29 5 5
29 6 11
29 7 14
29 8 27
29 9 43
29 10 46
29 11 48
29 12 5
29 13 32
29 14 34
29 15 37
29 16 35
29 17 39
29 18 20
29 19 32
29 20 18
29 21 59
29 22 1
29 23 21
29 24 27
29 25 33
29 26 51
29 27 54
29 28 54
